NAME : prob20b
TYPE : PDTSP
DIMENSION : 41
EDGE_WEIGHT_TYPE : EUC_2D
NODE_COORD_SECTION
1 728 974
2 784 650
3 457 376
4 937 114
5 305 776
6 87 834
7 927 533
8 182 856
9 469 418
10 60 262
11 826 282
12 495 388
13 440 758
14 485 265
15 123 271
16 911 29
17 163 730
18 979 571
19 298 576
20 518 933
21 486 783
22 203 458
23 622 203
24 489 454
25 201 154
26 979 365
27 966 511
28 603 377
29 900 97
30 282 744
31 896 768
32 290 473
33 359 146
34 738 581
35 29 188
36 104 700
37 172 954
38 546 340
39 665 774
40 405 370
41 634 86
PICKUP_AND_DELIVERY_SECTION
1 0 0 0 0 0 0
2 0 0 0 0 22 0
3 0 0 0 0 23 0
4 0 0 0 0 24 0
5 0 0 0 0 25 0
6 0 0 0 0 26 0
7 0 0 0 0 27 0
8 0 0 0 0 28 0
9 0 0 0 0 29 0
10 0 0 0 0 30 0
11 0 0 0 0 31 0
12 0 0 0 0 32 0
13 0 0 0 0 33 0
14 0 0 0 0 34 0
15 0 0 0 0 35 0
16 0 0 0 0 36 0
17 0 0 0 0 37 0
18 0 0 0 0 38 0
19 0 0 0 0 39 0
20 0 0 0 0 40 0
21 0 0 0 0 41 0
22 0 0 0 0 0 2
23 0 0 0 0 0 3
24 0 0 0 0 0 4
25 0 0 0 0 0 5
26 0 0 0 0 0 6
27 0 0 0 0 0 7
28 0 0 0 0 0 8
29 0 0 0 0 0 9
30 0 0 0 0 0 10
31 0 0 0 0 0 11
32 0 0 0 0 0 12
33 0 0 0 0 0 13
34 0 0 0 0 0 14
35 0 0 0 0 0 15
36 0 0 0 0 0 16
37 0 0 0 0 0 17
38 0 0 0 0 0 18
39 0 0 0 0 0 19
40 0 0 0 0 0 20
41 0 0 0 0 0 21
DEPOT_SECTION
1 
-1
EOF
